p cnf 138 361
e 81 82 83 84 85 86 87 88 89 90 91 92 93 94 125 126 127 128 129 130 131 132 133 134 0
a 138 0
e 61 62 63 64 65 66 67 68 69 70 71 72 73 74 75 76 77 78 79 80 115 116 117 118 119 120 121 122 123 124 0
a 137 0
e 41 42 43 44 45 46 47 48 49 50 51 52 53 54 55 56 57 58 59 60 105 106 107 108 109 110 111 112 113 114 0
a 136 0
e 21 22 23 24 25 26 27 28 29 30 31 32 33 34 35 36 37 38 39 40 95 96 97 98 99 100 101 102 103 104 0
a 135 0
e 1 2 3 4 5 6 7 8 9 10 11 12 13 14 15 16 17 18 19 20 0
-138 -61 81 0
-138 -81 61 0
-138 -62 0
-138 -63 82 0
-138 -82 63 0
-138 -64 83 0
-138 -83 64 0
-138 -65 84 0
-138 -84 65 0
-138 -66 85 0
-138 -85 66 0
-138 -67 0
-138 -68 0
-138 -69 0
-138 -70 0
-138 -71 125 0
-138 -125 71 0
-138 -72 126 0
-138 -126 72 0
-138 -73 127 0
-138 -127 73 0
-138 -74 128 0
-138 -128 74 0
-138 -75 129 0
-138 -129 75 0
-138 -76 130 0
-138 -130 76 0
-138 -77 131 0
-138 -131 77 0
-138 -78 132 0
-138 -132 78 0
-138 -79 133 0
-138 -133 79 0
-138 -80 134 0
-138 -134 80 0
-61 125 138 0
-125 61 138 0
-62 126 138 0
-126 62 138 0
-63 127 138 0
-127 63 138 0
-64 128 138 0
-128 64 138 0
-65 129 138 0
-129 65 138 0
-66 130 138 0
-130 66 138 0
-67 131 138 0
-131 67 138 0
-68 132 138 0
-132 68 138 0
-69 133 138 0
-133 69 138 0
-70 134 138 0
-134 70 138 0
-71 86 138 0
-86 71 138 0
72 138 0
-73 87 138 0
-87 73 138 0
-74 88 138 0
-88 74 138 0
-75 89 138 0
-89 75 138 0
-76 90 138 0
-90 76 138 0
-77 91 138 0
-91 77 138 0
-78 92 138 0
-92 78 138 0
-79 93 138 0
-93 79 138 0
-80 94 138 0
-94 80 138 0
-137 -41 61 0
-137 -61 41 0
-137 -42 62 0
-137 -62 42 0
-137 -43 63 0
-137 -63 43 0
-137 -44 64 0
-137 -64 44 0
-137 -45 65 0
-137 -65 45 0
-137 -46 66 0
-137 -66 46 0
-137 -47 67 0
-137 -67 47 0
-137 -48 68 0
-137 -68 48 0
-137 -49 69 0
-137 -69 49 0
-137 -50 70 0
-137 -70 50 0
-137 -51 115 0
-137 -115 51 0
-137 -52 116 0
-137 -116 52 0
-137 -53 117 0
-137 -117 53 0
-137 -54 118 0
-137 -118 54 0
-137 -55 119 0
-137 -119 55 0
-137 -56 120 0
-137 -120 56 0
-137 -57 121 0
-137 -121 57 0
-137 -58 122 0
-137 -122 58 0
-137 -59 123 0
-137 -123 59 0
-137 -60 124 0
-137 -124 60 0
-41 115 137 0
-115 41 137 0
-42 116 137 0
-116 42 137 0
-43 117 137 0
-117 43 137 0
-44 118 137 0
-118 44 137 0
-45 119 137 0
-119 45 137 0
-46 120 137 0
-120 46 137 0
-47 121 137 0
-121 47 137 0
-48 122 137 0
-122 48 137 0
-49 123 137 0
-123 49 137 0
-50 124 137 0
-124 50 137 0
-51 71 137 0
-71 51 137 0
-52 72 137 0
-72 52 137 0
-53 73 137 0
-73 53 137 0
-54 74 137 0
-74 54 137 0
-55 75 137 0
-75 55 137 0
-56 76 137 0
-76 56 137 0
-57 77 137 0
-77 57 137 0
-58 78 137 0
-78 58 137 0
-59 79 137 0
-79 59 137 0
-60 80 137 0
-80 60 137 0
-136 -21 41 0
-136 -41 21 0
-136 -22 42 0
-136 -42 22 0
-136 -23 43 0
-136 -43 23 0
-136 -24 44 0
-136 -44 24 0
-136 -25 45 0
-136 -45 25 0
-136 -26 46 0
-136 -46 26 0
-136 -27 47 0
-136 -47 27 0
-136 -28 48 0
-136 -48 28 0
-136 -29 49 0
-136 -49 29 0
-136 -30 50 0
-136 -50 30 0
-136 -31 105 0
-136 -105 31 0
-136 -32 106 0
-136 -106 32 0
-136 -33 107 0
-136 -107 33 0
-136 -34 108 0
-136 -108 34 0
-136 -35 109 0
-136 -109 35 0
-136 -36 110 0
-136 -110 36 0
-136 -37 111 0
-136 -111 37 0
-136 -38 112 0
-136 -112 38 0
-136 -39 113 0
-136 -113 39 0
-136 -40 114 0
-136 -114 40 0
-21 105 136 0
-105 21 136 0
-22 106 136 0
-106 22 136 0
-23 107 136 0
-107 23 136 0
-24 108 136 0
-108 24 136 0
-25 109 136 0
-109 25 136 0
-26 110 136 0
-110 26 136 0
-27 111 136 0
-111 27 136 0
-28 112 136 0
-112 28 136 0
-29 113 136 0
-113 29 136 0
-30 114 136 0
-114 30 136 0
-31 51 136 0
-51 31 136 0
-32 52 136 0
-52 32 136 0
-33 53 136 0
-53 33 136 0
-34 54 136 0
-54 34 136 0
-35 55 136 0
-55 35 136 0
-36 56 136 0
-56 36 136 0
-37 57 136 0
-57 37 136 0
-38 58 136 0
-58 38 136 0
-39 59 136 0
-59 39 136 0
-40 60 136 0
-60 40 136 0
-135 -1 21 0
-135 -21 1 0
-135 -2 22 0
-135 -22 2 0
-135 -3 23 0
-135 -23 3 0
-135 -4 24 0
-135 -24 4 0
-135 -5 25 0
-135 -25 5 0
-135 -6 26 0
-135 -26 6 0
-135 -7 27 0
-135 -27 7 0
-135 -8 28 0
-135 -28 8 0
-135 -9 29 0
-135 -29 9 0
-135 -10 30 0
-135 -30 10 0
-135 -11 95 0
-135 -95 11 0
-135 -12 96 0
-135 -96 12 0
-135 -13 97 0
-135 -97 13 0
-135 -14 98 0
-135 -98 14 0
-135 -15 99 0
-135 -99 15 0
-135 -16 100 0
-135 -100 16 0
-135 -17 101 0
-135 -101 17 0
-135 -18 102 0
-135 -102 18 0
-135 -19 103 0
-135 -103 19 0
-135 -20 104 0
-135 -104 20 0
-1 95 135 0
-95 1 135 0
-2 96 135 0
-96 2 135 0
-3 97 135 0
-97 3 135 0
-4 98 135 0
-98 4 135 0
-5 99 135 0
-99 5 135 0
-6 100 135 0
-100 6 135 0
-7 101 135 0
-101 7 135 0
-8 102 135 0
-102 8 135 0
-9 103 135 0
-103 9 135 0
-10 104 135 0
-104 10 135 0
-11 31 135 0
-31 11 135 0
-12 32 135 0
-32 12 135 0
-13 33 135 0
-33 13 135 0
-14 34 135 0
-34 14 135 0
-15 35 135 0
-35 15 135 0
-16 36 135 0
-36 16 135 0
-17 37 135 0
-37 17 135 0
-18 38 135 0
-38 18 135 0
-19 39 135 0
-39 19 135 0
-20 40 135 0
-40 20 135 0
-6 10 0
-6 5 0
-10 -5 6 0
-5 9 0
-5 4 0
-9 -4 5 0
-4 8 0
-4 3 0
-8 -3 4 0
-3 7 0
-7 3 0
-20 -1 5 10 0
-20 -10 -5 -1 0
-10 -1 5 20 0
-5 -1 10 20 0
-19 -1 4 9 0
-19 -9 -4 -1 0
-9 -1 4 19 0
-4 -1 9 19 0
-18 -1 3 8 0
-18 -8 -3 -1 0
-8 -1 3 18 0
-3 -1 8 18 0
-17 -7 -1 0
-1 7 17 0
-20 1 10 0
-10 1 20 0
-19 1 9 0
-9 1 19 0
-18 1 8 0
-8 1 18 0
-17 1 7 0
-7 1 17 0
-12 2 6 0
-2 12 0
-6 12 0
-16 20 0
-16 15 0
-20 -15 16 0
-15 19 0
-15 14 0
-19 -14 15 0
-14 18 0
-14 13 0
-18 -13 14 0
-13 17 0
-17 13 0
